p cnf 24 14
-1 4 8 11 18 0 
-2 10 -3 -4 1 8 11 19 0 
-2 10 -3 -4 1 8 11 20 0 
-5 18 0 
-6 18 0 
-7 21 0 
-8 1 4 11 19 0 
-8 1 4 11 21 0 
-9 12 16 -7 21 0 
-10 2 -11 1 4 8 18 0 
-9 12 16 -7 22 0 
-12 9 16 -13 -14 21 0 
-15 -16 9 12 -17 23 0 
-15 -16 9 12 -17 24 0 
